Diamond 
1.0
-1.613990   0.000000   1.613990
 0.000000   1.613990   1.613990
-1.613990   1.613990   0.000000
C
2
Direct
 -0.125 -0.125 -0.125
  0.125  0.125  0.125
