 num_wann =     8  ! set to NBANDS by VASP
