Diamond self consistent

   ISTART =   0
   ICHARG =   11
   PREC   =  high

 Electronic Relaxation
   NELM   =  50
   NELMIN = 5
   EDIFF  =  1E-05

#   ADDGRID = T
   ISMEAR = -5
   ALGO = Normal
   LREAL= .FALSE.
   LWAVE = .FALSE.

   NBANDS = 10
   LWANNIER90 = .TRUE.
   LWRITE_MMN_AMN = .TRUE.
