 num_wann =    12  ! set to NBANDS by VASP
